c CNF generator v0.9
p cnf 10 42
1 9 10 0
-3 -3 3 0
-8 -6 3 0
-3 -5 6 0
8 -4 -4 0
-1 -4 2 0
-3 2 -10 0
-4 -2 1 0
-5 -8 -9 0
-3 6 8 0
-9 -8 5 0
6 8 4 0
7 -7 8 0
-10 1 8 0
-5 -1 -7 0
-7 6 -8 0
10 -8 1 0
-5 -9 3 0
6 -3 -4 0
-6 -5 -7 0
-6 -9 -5 0
-9 4 -1 0
-9 5 2 0
-7 4 7 0
-4 5 -3 0
1 -6 -1 0
5 -8 2 0
-7 -7 5 0
-4 -10 -2 0
-6 -2 -8 0
-1 -2 -3 0
5 7 2 0
-2 1 7 0
5 -8 -7 0
-10 10 9 0
-8 -8 8 0
5 6 5 0
-10 -1 5 0
7 -2 -9 0
5 -6 -9 0
-5 4 7 0
9 5 -6 0
